nServices=10;
nDrivers=15;
nBuses=15;
maxBuses=12;
startingTime=[125 173 88 190 55 130 180 36 91 120];
durationTime=[12 25 11 14 26 23 28 10 24 26];
durationDist=[47 52 28 54 32 35 53 60 40 32];
passangers=[4 17 16 15 18 14 23 8 18 9];
capacity=[28 20 20 16 18 17 12 10 17 19 24 21 11 14 17];
costTime=[7 10 9 8 10 8 9 10 8 10 6 7 9 6 7];
costDist=[2 2 2 2 4 3 5 4 6 4 6 2 3 3 5];
maxTime=[48 48 32 54 28 44 43 45 42 42 53 52 20 34 50];
costBM=[8 7 6 5 8 8 7 8 6 8 7 6 7 5 6];
costEM=[8 12 8 10 11 10 11 11 8 12 9 12 10 9 8];
BM=[13 13 16 16 14 18 10 20 14 20 17 10 19 20 11];
